NAME : single
TYPE : ATSP
DIMENSION : 5
EDGE_WEIGHT_TYPE : EXPLICIT
EDGE_WEIGHT_FORMAT : FULL_MATRIX
EDGE_WEIGHT_SECTION
0 50375 364 169 50324 
0 0 50000 50000 50000 
0 50000 0 210 50000 
0 50000 210 0 50000 
0 50000 50000 50000 0 
EOF